1 100 400
3 1 2 3 2 2 1 2 1 3
3
3 2 9
0 40.0 50.0 0.0 0.0 0 1236
2 45.0 68.0 90.0 10.0 0 1127 1 0 0 1 0 0 0 0 0 0 1
3 45.0 70.0 90.0 30.0 0 1125 18 0 0 0 0 0 0 1 0 0 1
4 42.0 66.0 90.0 10.0 0 1129 5 1 1 1 0 0 0 1 0 1 0
5 42.0 68.0 90.0 10.0 727 782 77 0 0 0 0 0 0 0 1 0 1
6 42.0 65.0 90.0 10.0 0 1130 98 0 1 0 0 0 0 0 0 0 0
7 40.0 69.0 90.0 20.0 621 702 45 0 0 0 1 1 0 0 0 0 0
8 40.0 66.0 90.0 20.0 0 1130 41 0 0 0 0 0 0 1 0 0 0
9 38.0 68.0 90.0 20.0 255 324 75 0 0 1 0 0 0 0 1 0 0
10 38.0 70.0 90.0 10.0 534 605 53 0 1 1 0 0 0 0 1 0 1
11 35.0 66.0 90.0 10.0 357 410 9 0 0 0 0 0 1 0 0 0 0
12 35.0 69.0 90.0 10.0 448 505 60 0 0 0 0 1 0 0 1 0 0
13 25.0 85.0 90.0 20.0 0 1107 14 0 0 1 0 0 1 0 0 0 1
14 22.0 75.0 90.0 30.0 30 92 1 0 0 0 0 0 0 0 1 0 0
15 22.0 85.0 90.0 10.0 567 620 88 0 0 0 0 0 1 0 0 0 0
16 20.0 80.0 90.0 40.0 384 429 10 0 0 0 0 1 0 0 1 0 0
17 20.0 85.0 90.0 40.0 475 528 18 0 0 0 0 0 1 1 0 1 0
18 18.0 75.0 90.0 20.0 99 148 94 0 0 1 0 0 0 1 1 0 0
19 15.0 75.0 90.0 20.0 179 254 40 0 0 0 0 0 0 0 0 1 0
20 15.0 80.0 90.0 10.0 278 345 35 0 0 0 0 0 0 1 0 0 0
21 30.0 50.0 90.0 10.0 10 73 71 1 0 0 0 0 0 1 0 0 0
22 30.0 52.0 90.0 20.0 0 1135 53 0 0 0 0 0 1 0 0 0 0
23 28.0 52.0 90.0 20.0 812 883 24 0 0 0 0 1 0 0 1 0 0
24 28.0 55.0 90.0 10.0 732 777 9 0 1 1 1 0 0 0 0 1 0
25 25.0 50.0 90.0 10.0 65 144 14 0 1 0 1 0 0 0 0 0 0
26 25.0 52.0 90.0 40.0 169 224 28 0 0 0 0 0 1 0 0 0 0
27 25.0 55.0 90.0 10.0 0 1130 85 1 0 0 0 0 0 0 0 0 0
28 23.0 52.0 90.0 10.0 261 316 6 0 0 1 0 0 1 0 1 1 1
29 23.0 55.0 90.0 20.0 546 593 20 0 1 0 0 0 0 0 0 0 0
30 20.0 50.0 90.0 10.0 358 405 89 0 0 0 0 1 1 0 0 0 0
31 20.0 55.0 90.0 10.0 449 504 18 1 1 0 0 0 1 0 1 0 1
32 10.0 35.0 90.0 20.0 0 1112 23 0 0 0 0 0 0 0 1 1 0
33 10.0 40.0 90.0 30.0 31 100 39 0 1 0 0 1 0 0 0 0 0
34 8.0 40.0 90.0 40.0 87 158 58 0 0 0 0 0 0 0 0 1 0
35 8.0 45.0 90.0 20.0 0 1113 98 0 0 0 0 0 1 0 0 0 1
36 5.0 35.0 90.0 10.0 283 344 84 0 0 0 0 0 1 0 0 0 0
37 5.0 45.0 90.0 10.0 665 716 39 0 0 0 0 1 0 0 0 0 0
38 2.0 40.0 90.0 20.0 0 1106 39 0 1 0 0 0 0 0 0 0 0
39 0.0 40.0 90.0 30.0 479 522 93 0 0 0 0 0 0 0 0 0 1
40 0.0 45.0 90.0 20.0 567 624 6 0 0 0 0 0 0 0 1 0 1
41 35.0 30.0 90.0 10.0 264 321 89 0 0 0 0 0 0 1 1 0 1
42 35.0 32.0 90.0 10.0 166 235 39 0 0 0 0 0 0 0 1 0 0
43 33.0 32.0 90.0 20.0 68 149 82 0 1 0 0 0 0 0 0 0 0
44 33.0 35.0 90.0 10.0 16 80 59 0 0 0 0 0 0 1 0 0 0
45 32.0 30.0 90.0 10.0 359 412 72 1 0 0 0 0 0 0 0 1 0
46 30.0 30.0 90.0 10.0 541 600 14 0 0 0 1 0 0 0 0 0 0
47 30.0 32.0 90.0 30.0 448 509 48 0 0 0 0 0 1 0 0 0 0
48 30.0 35.0 90.0 10.0 1054 1127 74 0 1 0 0 0 0 0 1 0 0
49 28.0 30.0 90.0 10.0 0 1122 20 0 0 0 0 0 1 1 0 0 0
50 28.0 35.0 90.0 10.0 1001 1066 8 0 0 1 1 0 0 0 1 0 0
51 26.0 32.0 90.0 10.0 0 1123 51 0 1 0 0 0 1 0 0 1 0
52 25.0 30.0 90.0 10.0 725 786 94 0 0 0 0 0 1 0 0 0 0
53 25.0 35.0 90.0 10.0 0 1124 16 0 0 0 0 0 0 0 1 0 1
54 44.0 5.0 90.0 20.0 286 347 72 0 0 0 0 0 1 0 0 0 0
55 42.0 10.0 90.0 40.0 186 257 79 0 0 0 0 0 1 0 1 0 0
56 42.0 15.0 90.0 10.0 95 158 37 0 0 0 0 1 0 0 0 0 1
57 40.0 5.0 90.0 30.0 385 436 60 1 0 0 0 1 0 1 0 1 1
58 40.0 15.0 90.0 40.0 35 87 12 0 0 0 0 0 0 0 0 0 1
59 38.0 5.0 90.0 30.0 471 534 40 0 0 1 1 0 0 0 0 0 0
60 38.0 15.0 90.0 10.0 0 1110 18 0 0 1 0 0 1 0 0 0 0
61 35.0 5.0 90.0 20.0 562 629 28 0 0 0 0 0 0 0 0 0 1
62 50.0 30.0 90.0 10.0 531 610 92 0 0 1 0 0 0 0 0 1 0
63 50.0 35.0 90.0 20.0 262 317 72 1 0 0 0 1 0 0 0 0 0
64 50.0 40.0 90.0 50.0 171 218 11 1 0 0 0 0 0 0 0 0 0
65 48.0 30.0 90.0 10.0 632 693 88 0 0 0 0 0 0 0 0 1 0
66 48.0 40.0 90.0 10.0 76 129 14 0 0 0 0 0 0 1 0 0 0
67 47.0 35.0 90.0 10.0 826 875 6 0 0 0 0 0 0 0 1 0 0
68 47.0 40.0 90.0 10.0 12 77 37 0 1 0 0 0 0 0 0 0 0
69 45.0 30.0 90.0 10.0 734 777 0 0 0 0 0 0 1 1 0 0 0
70 45.0 35.0 90.0 10.0 916 969 88 1 1 0 0 1 1 0 0 0 0
71 95.0 30.0 90.0 30.0 387 456 63 0 1 0 0 0 0 1 0 0 0
72 95.0 35.0 90.0 20.0 293 360 74 0 1 0 1 0 0 1 0 0 0
73 53.0 30.0 90.0 10.0 0 1122 88 0 0 0 0 0 1 0 0 0 0
74 92.0 30.0 90.0 10.0 478 551 73 0 0 1 1 0 0 1 0 0 0
75 53.0 35.0 90.0 50.0 353 412 44 1 1 0 0 0 0 0 1 0 0
76 45.0 65.0 90.0 20.0 0 1130 37 0 0 0 1 0 0 0 0 0 1
77 90.0 35.0 90.0 10.0 203 260 94 1 1 0 0 0 0 0 0 1 0
78 88.0 30.0 90.0 10.0 574 643 43 0 0 0 1 0 1 0 0 1 0
79 88.0 35.0 90.0 20.0 109 170 84 1 1 0 0 0 1 0 0 0 0
80 87.0 30.0 90.0 10.0 668 731 10 0 0 0 0 1 0 0 0 0 1
81 85.0 25.0 90.0 10.0 769 820 8 0 1 0 0 0 0 0 0 0 0
82 85.0 35.0 90.0 30.0 47 124 95 1 0 0 0 0 0 0 0 0 0
83 75.0 55.0 90.0 20.0 0 1110 48 0 0 0 1 0 0 0 0 1 0
84 72.0 55.0 90.0 10.0 0 1113 45 0 1 0 0 0 0 0 0 0 0
85 70.0 58.0 90.0 20.0 458 523 42 1 0 0 0 0 0 0 0 0 1
86 68.0 60.0 90.0 30.0 0 1116 16 0 0 1 0 0 0 0 0 0 0
87 66.0 55.0 90.0 10.0 173 238 5 0 1 0 0 0 0 0 0 0 0
88 65.0 55.0 90.0 20.0 85 144 65 0 0 1 0 0 1 1 0 1 0
89 65.0 60.0 90.0 30.0 645 708 24 0 1 1 0 1 0 0 0 0 1
90 63.0 58.0 90.0 10.0 737 802 1 0 0 0 1 0 0 0 0 0 0
91 60.0 55.0 90.0 10.0 20 84 10 0 0 0 1 0 0 0 0 1 0
92 60.0 60.0 90.0 10.0 0 1123 58 1 0 0 0 0 0 0 1 0 0
93 67.0 85.0 90.0 20.0 368 441 45 1 0 0 0 1 0 1 0 0 0
94 65.0 85.0 90.0 40.0 475 518 29 0 0 1 0 0 0 0 1 0 0
95 65.0 82.0 90.0 10.0 0 1105 27 0 0 0 0 0 0 0 1 1 0
96 62.0 80.0 90.0 30.0 0 1108 92 0 0 0 0 1 1 0 0 0 0
97 60.0 80.0 90.0 10.0 0 1109 76 0 0 0 1 0 0 0 0 0 0
98 60.0 85.0 90.0 30.0 561 622 36 0 0 0 1 0 0 0 0 1 0
99 58.0 75.0 90.0 20.0 0 1115 33 0 0 0 1 0 1 0 0 0 0
100 55.0 80.0 90.0 10.0 743 820 55 0 0 0 0 1 0 0 0 0 0
101 55.0 85.0 90.0 20.0 647 726 63 1 1 0 1 0 1 0 0 0 0